(declare-fun temp1366_1 () (_ BitVec 64))
(declare-fun var1051073 () (_ BitVec 64))
(declare-fun temp1366_2 () (_ BitVec 64))
(declare-fun var132043 () (_ BitVec 64))
(declare-fun temp1366_3 () (_ BitVec 64))
(declare-fun var1313217 () (_ BitVec 64))
(declare-fun temp1366_4 () (_ BitVec 64))
(declare-fun var1706433 () (_ BitVec 64))
(declare-fun temp1366_5 () (_ BitVec 64))
(declare-fun var2296257 () (_ BitVec 64))
(declare-fun temp1366_6 () (_ BitVec 64))
(declare-fun var2886081 () (_ BitVec 64))
(declare-fun temp1366_7 () (_ BitVec 64))
(declare-fun var3475905 () (_ BitVec 64))
(declare-fun temp1366_8 () (_ BitVec 64))
(declare-fun var134570 () (_ BitVec 64))
(declare-fun temp1366_9 () (_ BitVec 64))
(declare-fun temp1366_11 () (_ BitVec 64))
(declare-fun temp1366_10 () (_ BitVec 64))
(declare-fun temp1366_12 () (_ BitVec 64))
(declare-fun ARGNAME_input_NAMEEND_DIM () (_ BitVec 64))
(declare-fun var134912 () (_ BitVec 64))
(declare-fun temp1366_13 () (_ BitVec 64))
(declare-fun temp1366_14 () (_ BitVec 64))
(declare-fun ARGNAME_training_NAMEEND () (_ BitVec 64))
(declare-fun var134935 () (_ BitVec 64))
(declare-fun temp1366_16 () (_ BitVec 64))
(declare-fun temp1366_15 () (_ BitVec 64))
(assert (= temp1366_1 #x0000000000000002))
(assert (= var1051073 temp1366_1))
(assert (= temp1366_2 #x0000000000000001))
(assert (= var132043 temp1366_2))
(assert (= temp1366_3 #x0000000000000002))
(assert (= var1313217 temp1366_3))
(assert (= temp1366_4 #x0000000000000002))
(assert (= var1706433 temp1366_4))
(assert (= temp1366_5 #x0000000000000002))
(assert (= var2296257 temp1366_5))
(assert (= temp1366_6 #x0000000000000002))
(assert (= var2886081 temp1366_6))
(assert (= temp1366_7 #x0000000000000002))
(assert (= var3475905 temp1366_7))
(assert (= temp1366_8 #x0000000000000000))
(assert (= var134570 temp1366_8))
(assert (= temp1366_9 #x0000000000000000))
(assert (= var134570 temp1366_9))
(assert (= temp1366_11 #x0000000000000000))
(assert (= temp1366_10 temp1366_11))
(assert (= temp1366_12 #x0000000000000006))
(assert (= var134912
   (ite (bvslt ARGNAME_input_NAMEEND_DIM temp1366_12)
        #x0000000000000001
        #x0000000000000000)))
(assert (= temp1366_13 #x0000000000000001))
(assert (= var134912 temp1366_13))
(assert (= temp1366_14 #x0000000000000001))
(assert (= var134935 (bvxor ARGNAME_training_NAMEEND temp1366_14)))
(assert (= temp1366_16 #x0000000000000002))
(assert (= temp1366_15 temp1366_16))
(model-add temp1366_1 () (_ BitVec 64) #x0000000000000002)
(model-add var1051073 () (_ BitVec 64) #x0000000000000002)
(model-add temp1366_2 () (_ BitVec 64) #x0000000000000001)
(model-add var132043 () (_ BitVec 64) #x0000000000000001)
(model-add temp1366_3 () (_ BitVec 64) #x0000000000000002)
(model-add var1313217 () (_ BitVec 64) #x0000000000000002)
(model-add temp1366_4 () (_ BitVec 64) #x0000000000000002)
(model-add var1706433 () (_ BitVec 64) #x0000000000000002)
(model-add temp1366_5 () (_ BitVec 64) #x0000000000000002)
(model-add var2296257 () (_ BitVec 64) #x0000000000000002)
(model-add temp1366_6 () (_ BitVec 64) #x0000000000000002)
(model-add var2886081 () (_ BitVec 64) #x0000000000000002)
(model-add temp1366_7 () (_ BitVec 64) #x0000000000000002)
(model-add var3475905 () (_ BitVec 64) #x0000000000000002)
(model-add temp1366_8 () (_ BitVec 64) #x0000000000000000)
(model-add var134570 () (_ BitVec 64) #x0000000000000000)
(model-add temp1366_9 () (_ BitVec 64) #x0000000000000000)





